5 7 20 40 15 74 67 57 47 62 6 13 16 51 59 33 76 11 36 29 53 19 50 28 23 49 48 39 31 4 34 44 17 58 63 32 46 66 10 43 25 70 41 42 55 30 21 24 14 71 72 60 12 2 18 37 69 45 54 35 61 38 22 65 68 52 0 8 1 26 73 3 75 56 27 9 64 